143674
97, 106, 8, 92, 12, 93, 89, 80, 57, 23, 9, 68, 99, 100, 51, 72, 82, 33, 2, 73, 48, 85, 36, 71, 54, 95, 67, 11, 41, 104, 38, 105, 101, 78, 3, 94, 70, 49, 37, 39, 53, 84, 7, 18, 32, 63, 75, 35, 103, 61, 14, 47, 4, 15, 96, 60, 91, 43, 79, 58, 76, 28, 27, 10, 66, 59, 44, 87, 1, 24, 74, 102, 83, 34, 26, 50, 19, 42, 81, 45, 25, 86, 77, 46, 62, 22, 21, 17, 90, 64, 16, 20, 56, 40, 6, 69, 88, 13, 98, 31, 65, 52, 5, 30, 29, 55
